p cnf 19 44
4 0
-5 0
-6 0
-7 0
8 0
9 -5 0
-4 -1 9 0
-9 5 4 0
-9 5 -4 1 0
10 -6 0
-5 -1 10 0
-10 6 5 0
-10 6 -5 1 0
11 -7 0
-6 -1 11 0
-11 7 6 0
-11 7 -6 1 0
12 0
13 -9 0
-8 -2 13 0
-13 9 8 0
-13 9 -8 2 0
14 -10 0
-9 -2 14 0
-14 10 9 0
-14 10 -9 2 0
15 -11 0
-10 -2 15 0
-15 11 10 0
-15 11 -10 2 0
16 0
17 -13 0
-12 -3 17 0
-17 13 12 0
-17 13 -12 3 0
18 -14 0
-13 -3 18 0
-18 14 13 0
-18 14 -13 3 0
19 -15 0
-14 -3 19 0
-19 15 14 0
-19 15 -14 3 0
19 0
